13 -33 -36 0
-13 -34 -36 0
-34 -35 -36 0
-15 -35 -36 0
33 15 -35 0
-35 -36 0
d -34 -35 -36 0
15 -36 0
-36 0
12 -15 0
14 -15 0
-15 0
12 0
-30 0
6 0
-24 0
14 0
-4 0
-2 0
-22 0
-32 0
-16 0
11 0
28 0
26 0
13 0
8 0
-29 0
-1 0
-21 0
-18 0
-10 0
0
